proyfinal/src/viki/013/experimentInOfficeAgust.take6.output/9cd064dc-ecbc-479b-ba63-1ac55d3ae415.als.dat
{'cnf.clauses': '118081',
 'cnf.totvars': '69608',
 'conflict literals': '62',
 'conflicts': '20',
 'decisions': '5291',
 'memused.mb': '17.97',
 'outcome': 'UNSAT',
 'propagations': '28780',
 'restarts': '1',
 'solver.msecs': 29,
 'task.msecs': 97}
