proyfinal/src/viki/013/experimentInOfficeAgust.take6.output/9cd064dc-ecbc-479b-ba63-1ac55d3ae415.als.out
Reading from standard input... Use '--help' for help.
============================[ Problem Statistics ]=============================
|                                                                             |
|  Number of variables:         69608                                         |
|  Number of clauses:          118081                                         |
|  Parse time:                   0.02 s                                       |
|                                                                             |
============================[ Search Statistics ]==============================
| Conflicts |          ORIGINAL         |          LEARNT          | Progress |
|           |    Vars  Clauses Literals |    Limit  Clauses Lit/Cl |          |
===============================================================================
===============================================================================
restarts              : 1
conflicts             : 20             (681 /sec)
decisions             : 5291           (0.00 % random) (180230 /sec)
propagations          : 28780          (980345 /sec)
conflict literals     : 62             (0.00 % deleted)
Memory used           : 17.97 MB
CPU time              : 0.029357 s

UNSATISFIABLE
